c FILE /home/rafael/Documents/HappySet/MIHS/inputs/happygen/output/graph_scale_free_k3_p0.1_v50_20241127_082407.txt
c SOURCE This is a scale-free graph formed for the happy graph colouring problem.
c DESCRIPTION It was generated using the problem generator of Rhyd Lewis
c
c GRAPH STATS
c Seed                             = -61793682
c Number of Nodes                  = 50
c Number of colours k              = 3
c Number of pre-assignments        = 5
c Number of links per new node     = 5
c Density                          = 0.191837
c 
c The degrees of nodes 1 to 50, respectively, are as follows 
c [27, 23, 20, 19, 18, 17, 16, 16, 14, 14, 13, 13, 13, 11, 10, 9, 9, 9, 8, 8, 8, 8, 8, 7, 7, 7, 
c  7, 7, 7, 7, 6, 6, 6, 6, 6, 6, 6, 6, 6, 6, 5, 5, 5, 5, 5, 5, 5, 5, 5, 5] 
c  
p edge 50 235 3
e 1 2
e 1 3
e 1 4
e 1 5
e 1 6
e 1 7
e 1 8
e 1 9
e 1 10
e 1 11
e 1 12
e 1 15
e 1 17
e 1 19
e 1 22
e 1 24
e 1 26
e 1 27
e 1 29
e 1 32
e 1 35
e 1 39
e 1 41
e 1 44
e 1 45
e 1 47
e 1 48
e 2 3
e 2 4
e 2 6
e 2 7
e 2 8
e 2 9
e 2 10
e 2 11
e 2 12
e 2 20
e 2 21
e 2 25
e 2 27
e 2 32
e 2 33
e 2 35
e 2 36
e 2 38
e 2 42
e 2 43
e 2 45
e 2 49
e 3 6
e 3 7
e 3 9
e 3 10
e 3 11
e 3 12
e 3 16
e 3 17
e 3 18
e 3 24
e 3 26
e 3 27
e 3 30
e 3 31
e 3 34
e 3 42
e 3 44
e 3 46
e 4 6
e 4 8
e 4 9
e 4 10
e 4 11
e 4 13
e 4 14
e 4 16
e 4 18
e 4 19
e 4 20
e 4 23
e 4 25
e 4 34
e 4 35
e 4 39
e 4 45
e 5 11
e 5 12
e 5 13
e 5 14
e 5 15
e 5 16
e 5 21
e 5 22
e 5 24
e 5 26
e 5 28
e 5 29
e 5 31
e 5 35
e 5 37
e 5 40
e 5 48
e 6 7
e 6 9
e 6 10
e 6 12
e 6 16
e 6 17
e 6 19
e 6 23
e 6 27
e 6 38
e 6 39
e 6 40
e 6 48
e 7 10
e 7 12
e 7 13
e 7 24
e 7 25
e 7 26
e 7 30
e 7 31
e 7 33
e 7 36
e 7 38
e 7 42
e 8 9
e 8 11
e 8 13
e 8 14
e 8 16
e 8 18
e 8 21
e 8 24
e 8 26
e 8 28
e 8 31
e 8 46
e 8 48
e 9 10
e 9 11
e 9 17
e 9 18
e 9 21
e 9 30
e 9 31
e 9 41
e 10 16
e 10 24
e 10 25
e 10 27
e 10 34
e 10 41
e 10 43
e 11 13
e 11 17
e 11 19
e 11 25
e 11 43
e 11 44
e 12 19
e 12 23
e 12 28
e 12 32
e 12 33
e 12 43
e 12 47
e 13 14
e 13 15
e 13 22
e 13 23
e 13 34
e 13 46
e 13 49
e 13 50
e 14 15
e 14 19
e 14 22
e 14 28
e 14 34
e 14 46
e 14 50
e 15 27
e 15 30
e 15 36
e 15 38
e 15 39
e 15 44
e 16 20
e 16 29
e 16 30
e 17 21
e 17 36
e 17 42
e 17 45
e 18 19
e 18 29
e 18 32
e 18 37
e 18 48
e 19 23
e 20 24
e 20 25
e 20 29
e 20 37
e 20 41
e 21 22
e 21 45
e 21 47
e 22 33
e 22 39
e 22 40
e 23 35
e 23 42
e 23 49
e 25 33
e 26 28
e 26 49
e 27 44
e 28 43
e 28 49
e 29 32
e 29 47
e 30 37
e 30 38
e 31 40
e 32 41
e 33 50
e 34 37
e 35 36
e 36 50
e 37 46
e 38 47
e 39 40
e 40 50
n 9 1
n 18 1
n 38 2
n 41 1
n 42 3
